c SAT Generator for power-law distributed variable frequencies
c -g u -v 20 -c 91 -k 3 -p 2.750000 -b 3.200000 -f /home/schmidt/Devel/ni-kop-sat/data/ensemble/ruf20-91/ruf20-91-668 -u 1 -U 1 -s 3272609667
p cnf 20 91
-7 9 -17 0
1 -7 19 0
2 3 17 0
-3 5 -13 0
-4 -10 -16 0
-5 -12 -16 0
-5 11 12 0
-2 -18 -20 0
-2 -8 -17 0
-3 12 15 0
-3 -4 -13 0
-9 15 17 0
6 -8 20 0
1 10 -19 0
-8 9 -13 0
-3 4 17 0
-2 -3 4 0
3 5 20 0
2 7 -9 0
-3 -10 16 0
-2 -14 -19 0
-4 9 19 0
6 -16 -18 0
10 -12 19 0
1 -16 18 0
4 -13 -15 0
-1 12 -15 0
3 -11 19 0
1 7 -18 0
2 4 -7 0
-5 13 -17 0
3 12 16 0
-1 -7 11 0
-8 -11 18 0
-5 16 18 0
1 16 -19 0
-2 -9 -11 0
4 -8 -14 0
1 -7 -14 0
-1 8 -10 0
-1 14 15 0
1 5 -11 0
5 -8 11 0
-4 10 -11 0
6 10 14 0
5 12 -13 0
-4 15 17 0
2 -12 14 0
4 7 -12 0
1 7 16 0
-10 -11 -17 0
-8 9 -15 0
1 3 8 0
-9 -12 -15 0
-5 15 17 0
5 -7 16 0
6 7 11 0
6 -8 12 0
10 15 19 0
1 -6 -12 0
2 15 19 0
4 -6 -16 0
10 -13 -15 0
6 -10 15 0
-10 14 -17 0
2 13 17 0
10 14 -15 0
-3 -9 10 0
-15 18 -20 0
-1 -2 -9 0
-2 -10 -15 0
3 -10 20 0
5 -10 19 0
-8 -10 -11 0
-8 16 -17 0
-1 -5 -16 0
-3 -8 12 0
-8 -9 11 0
7 16 -18 0
12 13 17 0
8 -12 20 0
-10 -11 -20 0
-1 7 12 0
-1 -4 14 0
4 7 -19 0
-7 10 20 0
-10 -19 -20 0
3 6 -13 0
-6 -7 -15 0
-2 7 14 0
7 -13 -18 0
